W=5;
H=5;

MAX_TIME=47;
MAX_TRACKS=10;

TARGET=(3,5);

TRAINS=[(1,2,DOWN),(3,2,DOWN)];
DECOYS=[];

INIT_POS=[
(1,2,STRAIGHT_TD),
(3,2,STRAIGHT_TD),
(3,3,DSWITCH_T_D_R),
(3,4,STRAIGHT_RL),
(3,5,STRAIGHT_RL),
(5,2,DSWITCH_R_L_T),
(5,4,STRAIGHT_RL),
];
TUNNEL_PAIRS=[];

GATES=[
(3,4,1,false),
];
ACTIVATIONS=[
(5,4,1),
];

DSWITCHES=[
(3,3,1),
(5,2,1),
];
STATIONS=[];

SEMAPHORE_SUPPLY=0;
